
Gurobi 13.0.0 (linux64) logging started Fri Jan 16 02:32:38 2026

Set parameter LogFile to value "../experiments/network-n_50_s_2_rp_0-app_set-id_30_15_apps/submip_40_epr1_model_gurobi.log"
Set parameter TimeLimit to value 8.7859158131900767e+02
Gurobi Optimizer version 13.0.0 build v13.0.0rc1 (linux64 - "Ubuntu 24.04.3 LTS")

CPU model: Intel(R) Core(TM) Ultra 7 165H, instruction set [SSE2|AVX|AVX2]
Thread count: 22 physical cores, 22 logical processors, using up to 22 threads

Non-default parameters:
TimeLimit  8.7859158131900767e+02
LogToConsole  0

Academic license 2539022 - for non-commercial use only - registered to al___@studenti.unimi.it
Optimize a model with 25224 rows, 4900 columns and 57183 nonzeros (Min)
Model fingerprint: 0x08d7a8df
Model has 4900 linear objective coefficients
Model has 162 quadratic constraints
Variable types: 0 continuous, 4900 integer (4900 binary)
Coefficient statistics:
  Matrix range     [1e+00, 9e+02]
  QMatrix range    [5e+01, 2e+02]
  Objective range  [1e+01, 2e+02]
  Bounds range     [1e+00, 1e+00]
  RHS range        [1e+00, 1e+09]
  QRHS range       [1e+02, 6e+02]

MIP start from previous solve did not produce a new incumbent solution
MIP start from previous solve violates constraint fixed_app_11_microservice_3 by 1.000000000

Presolve removed 24856 rows and 4116 columns
Presolve time: 0.07s
Presolved: 5416 rows, 5686 columns, 33117 nonzeros
Variable types: 0 continuous, 5686 integer (5686 binary)

Root relaxation: objective 3.233418e+03, 524 iterations, 0.02 seconds (0.03 work units)

    Nodes    |    Current Node    |     Objective Bounds      |     Work
 Expl Unexpl |  Obj  Depth IntInf | Incumbent    BestBd   Gap | It/Node Time

     0     0 3233.41803    0  107          - 3233.41803      -     -    0s
     0     0 3235.66394    0  106          - 3235.66394      -     -    0s
     0     0 3393.04153    0  122          - 3393.04153      -     -    0s
     0     0 3399.22935    0  121          - 3399.22935      -     -    0s
     0     0 3399.23650    0  126          - 3399.23650      -     -    0s
     0     0 3469.43352    0  147          - 3469.43352      -     -    1s
     0     0 3482.04970    0  158          - 3482.04970      -     -    1s
     0     0 3484.32711    0  143          - 3484.32711      -     -    1s
     0     0 3603.49465    0  155          - 3603.49465      -     -    1s
     0     0 3612.21455    0  171          - 3612.21455      -     -    1s
     0     0 3723.97708    0  195          - 3723.97708      -     -    1s
     0     0 3725.09157    0   97          - 3725.09157      -     -    1s
     0     0 3725.09157    0   97          - 3725.09157      -     -    2s
     0     0 3725.09157    0  142          - 3725.09157      -     -    2s
     0     0 3725.09157    0  168          - 3725.09157      -     -    2s
     0     0 3725.09157    0  181          - 3725.09157      -     -    2s
     0     0 3725.09157    0  172          - 3725.09157      -     -    2s
     0     0 3725.09157    0  173          - 3725.09157      -     -    2s
     0     0 3725.09157    0  191          - 3725.09157      -     -    2s
     0     0 3725.09157    0  191          - 3725.09157      -     -    2s
     0     0 3725.09157    0  198          - 3725.09157      -     -    2s
     0     0 3725.09157    0  186          - 3725.09157      -     -    2s
     0     0 3725.09157    0  182          - 3725.09157      -     -    2s
     0     0 3725.09157    0  182          - 3725.09157      -     -    2s
     0     0 3725.09157    0  170          - 3725.09157      -     -    2s
     0     2 3725.09157    0  160          - 3725.09157      -     -    2s

Cutting planes:
  Gomory: 1
  Lift-and-project: 5
  Cover: 56
  Clique: 31
  MIR: 43
  Knapsack: 7
  StrongCG: 18
  GUB cover: 5
  Zero half: 7
  RLT: 93
  Relax-and-lift: 11
  BQP: 15

Explored 5 nodes (7409 simplex iterations) in 2.95 seconds (2.23 work units)
Thread count was 22 (of 22 available processors)

Solution count 0

Model is infeasible
Best objective -, best bound -, gap -

User-callback calls 1284, time in user-callback 0.00 sec
